Programacion 3/Programacion por restricciones/two dimentional cutting/input2.dzn
N = 20;          % Number of subjects
Width = 60;
Height = 60
W = array1d(1..N, [1,2,3,4,5,6,7,8,9,10,11,12,13,14,15,16,17,18,19,20]);
H = array1d(1..N, [1,2,3,4,5,6,7,8,9,10,11,12,13,14,15,16,17,18,19,20]);