Programacion 4/Sudoku/input/input2.txt
3 - - - - - - - -
- 2 - - 8 - - - 9
- - - 4 5 - 1 - 6
- - 2 - - - - - -
- - - - 9 8 - - -
- - 5 6 4 - 8 1 -
- - 7 - - - 5 - -
- - - 7 - - 6 - 8
1 - - - 6 - - - 4